W=7;
H=5;

MAX_TIME=18;
MAX_TRACKS=8;

TARGET=(3,7);

TRAINS=[(1,4,LEFT),(5,4,LEFT)];

INIT_POS=[
(1,4,STRAIGHT_RL),
(2,6,STRAIGHT_TD),
(3,2,ROCK),
(3,3,ROCK),
(3,4,ROCK),
(3,6,SWITCH_T_D_R),
(3,7,STRAIGHT_RL),
(4,6,STRAIGHT_TD),
(5,4,STRAIGHT_RL),
];
TUNNEL_PAIRS=[
  (1, 6, DOWN, 5, 1, RIGHT),
  (1, 1, RIGHT, 5, 6, TOP),
];

GATES=[];
ACTIVATIONS=[];

DSWITCHES=[];

STATIONS=[];
